************************************************************************
file with basedata            : mm48_.bas
initial value random generator: 14104320
************************************************************************
projects                      :  1
jobs (incl. supersource/sink ):  12
horizon                       :  77
RESOURCES
  - renewable                 :  2   R
  - nonrenewable              :  2   N
  - doubly constrained        :  0   D
************************************************************************
PROJECT INFORMATION:
pronr.  #jobs rel.date duedate tardcost  MPM-Time
    1     10      0       10        2       10
************************************************************************
PRECEDENCE RELATIONS:
jobnr.    #modes  #successors   successors
   0        1          3           1   2   3
   1        3          2           5   9
   2        3          3           4   8  10
   3        3          2           5   9
   4        3          1           6
   5        3          2           7   8
   6        3          1           9
   7        3          1          10
   8        3          1          11
   9        3          1          11
  10        3          1          11
  11        1          0        
************************************************************************
REQUESTS/DURATIONS:
jobnr. mode duration  R 1  R 2  R 3  R 4  E(W 1)  E(W 2)
------------------------------------------------------------------------
  0      1     0       0    0    0    0     0       0
  1      1     3       6    1   10    7    24      51
  2      1     2       7    7    5    6    28      22
  3      1     1       5    6    8    2    11      10
  4      1     2       6    7    6    5    26      22
  5      1     1       3    5    6    6     8      12
  6      1     1       6    4    9    6    10      15
  7      1     1       8    6   10    7    14      17
  8      1     6       7    8    9    8    90      102
  9      1     5       2   10    7    7    60      70
 10      1     5       7    4    3    9    55      60
 11      1     0       0    0    0    0     0       0
************************************************************************
RESOURCEAVAILABILITIES:
  R 1  R 2
   28   139
************************************************************************
RESOURCE LIMITS:
jobnr.  l(R 1)  u(R 1)  l(R 2)  u(R 2)
------------------------------------------------------------------------
  0        0       0       0       0
  1        4       8       9      17
  2        8      14       6      11
  3        6      11       5      10
  4        7      13       6      11
  5        5       8       6      12
  6        5      10       8      15
  7        7      14       9      17
  8        8      15       9      17
  9        6      12       8      14
 10        6      11       7      12
 11        0       0       0       0
************************************************************************
SCENARIOS:
------------------------------------------------------------------------
RESOURCE k = 1
s = 1: (0, 16, 25, 12, 22, 7, 10, 13, 81, 54, 54, 0)
s = 2: (0, 21, 21, 10, 33, 9, 9, 11, 58, 47, 67, 0)
s = 3: (0, 30, 30, 13, 16, 7, 13, 10, 67, 78, 62, 0)
s = 4: (0, 21, 23, 9, 26, 6, 11, 19, 81, 54, 71, 0)
s = 5: (0, 17, 37, 15, 23, 9, 6, 22, 60, 47, 58, 0)
s = 6: (0, 41, 24, 8, 37, 12, 6, 10, 91, 71, 41, 0)
s = 7: (0, 28, 36, 11, 27, 10, 9, 15, 88, 67, 60, 0)
s = 8: (0, 27, 26, 16, 36, 10, 10, 18, 54, 36, 67, 0)
s = 9: (0, 24, 36, 11, 38, 7, 7, 19, 63, 53, 62, 0)
s = 10: (0, 23, 30, 17, 34, 8, 8, 17, 54, 48, 33, 0)
s = 11: (0, 28, 28, 8, 41, 6, 11, 10, 73, 43, 50, 0)
s = 12: (0, 28, 25, 12, 32, 8, 12, 17, 80, 64, 43, 0)
s = 13: (0, 18, 40, 9, 34, 8, 17, 18, 130, 69, 37, 0)
s = 14: (0, 19, 32, 14, 31, 5, 7, 16, 153, 59, 57, 0)
s = 15: (0, 25, 19, 11, 28, 10, 11, 13, 51, 74, 60, 0)
s = 16: (0, 21, 26, 10, 22, 10, 13, 14, 111, 66, 33, 0)
s = 17: (0, 24, 25, 13, 27, 6, 8, 14, 118, 96, 70, 0)
s = 18: (0, 25, 27, 10, 43, 6, 13, 9, 115, 58, 34, 0)
s = 19: (0, 26, 50, 8, 30, 8, 10, 18, 99, 56, 35, 0)
s = 20: (0, 33, 32, 14, 29, 8, 11, 14, 62, 33, 59, 0)
s = 21: (0, 21, 30, 7, 35, 6, 12, 21, 100, 47, 47, 0)
s = 22: (0, 25, 25, 11, 15, 11, 10, 14, 76, 51, 56, 0)
s = 23: (0, 21, 39, 7, 28, 9, 12, 12, 81, 39, 63, 0)
s = 24: (0, 23, 48, 13, 29, 11, 9, 21, 92, 50, 41, 0)
s = 25: (0, 34, 34, 10, 17, 10, 11, 21, 74, 60, 82, 0)
s = 26: (0, 20, 23, 17, 22, 9, 12, 16, 71, 78, 60, 0)
s = 27: (0, 23, 29, 8, 17, 9, 12, 15, 85, 72, 72, 0)
s = 28: (0, 19, 24, 9, 23, 10, 15, 11, 108, 72, 65, 0)
s = 29: (0, 24, 24, 9, 30, 9, 12, 12, 89, 42, 75, 0)
s = 30: (0, 24, 22, 9, 26, 10, 8, 18, 97, 62, 36, 0)
s = 31: (0, 14, 20, 12, 38, 9, 14, 9, 107, 92, 53, 0)
s = 32: (0, 19, 34, 9, 28, 7, 13, 10, 80, 74, 38, 0)
s = 33: (0, 35, 28, 16, 22, 7, 10, 10, 58, 37, 57, 0)
s = 34: (0, 18, 31, 10, 34, 5, 10, 16, 58, 71, 47, 0)
s = 35: (0, 24, 26, 15, 40, 7, 8, 15, 95, 45, 70, 0)
s = 36: (0, 16, 38, 13, 44, 9, 11, 17, 51, 71, 33, 0)
s = 37: (0, 20, 34, 16, 30, 5, 7, 14, 70, 57, 51, 0)
s = 38: (0, 18, 16, 8, 21, 10, 8, 12, 132, 40, 77, 0)
s = 39: (0, 16, 33, 19, 23, 10, 13, 9, 105, 58, 62, 0)
s = 40: (0, 25, 19, 9, 29, 11, 6, 23, 88, 90, 72, 0)
s = 41: (0, 28, 23, 13, 35, 13, 10, 19, 79, 103, 41, 0)
s = 42: (0, 36, 33, 8, 19, 6, 8, 14, 81, 58, 54, 0)
s = 43: (0, 29, 41, 9, 20, 6, 16, 19, 55, 93, 47, 0)
s = 44: (0, 37, 25, 10, 16, 8, 10, 20, 114, 41, 29, 0)
s = 45: (0, 30, 24, 8, 27, 9, 6, 16, 117, 48, 55, 0)
s = 46: (0, 26, 32, 7, 35, 5, 7, 14, 60, 42, 89, 0)
s = 47: (0, 14, 16, 7, 38, 11, 10, 17, 117, 58, 62, 0)
s = 48: (0, 19, 20, 15, 20, 7, 7, 13, 127, 84, 65, 0)
s = 49: (0, 18, 19, 12, 41, 5, 12, 14, 80, 43, 41, 0)
s = 50: (0, 34, 35, 9, 41, 7, 13, 19, 70, 56, 91, 0)
s = 51: (0, 29, 22, 16, 31, 5, 9, 16, 108, 79, 45, 0)
s = 52: (0, 21, 24, 7, 18, 9, 9, 15, 143, 61, 54, 0)
s = 53: (0, 24, 22, 8, 21, 7, 13, 9, 111, 71, 64, 0)
s = 54: (0, 13, 41, 10, 33, 5, 15, 20, 82, 64, 43, 0)
s = 55: (0, 23, 27, 12, 26, 10, 10, 9, 89, 63, 77, 0)
s = 56: (0, 18, 34, 12, 28, 8, 15, 11, 81, 61, 39, 0)
s = 57: (0, 16, 21, 11, 18, 8, 11, 12, 66, 48, 67, 0)
s = 58: (0, 17, 27, 14, 27, 8, 14, 20, 141, 54, 38, 0)
s = 59: (0, 24, 18, 9, 22, 13, 9, 20, 77, 41, 79, 0)
s = 60: (0, 36, 26, 17, 33, 6, 10, 16, 114, 48, 70, 0)
s = 61: (0, 29, 22, 12, 32, 12, 11, 11, 69, 48, 44, 0)
s = 62: (0, 27, 23, 14, 35, 9, 7, 22, 109, 47, 72, 0)
s = 63: (0, 28, 38, 8, 29, 7, 19, 14, 103, 50, 64, 0)
s = 64: (0, 28, 39, 7, 15, 7, 9, 10, 116, 54, 67, 0)
s = 65: (0, 33, 20, 14, 43, 12, 14, 13, 88, 57, 35, 0)
s = 66: (0, 28, 28, 11, 22, 8, 11, 16, 104, 36, 45, 0)
s = 67: (0, 29, 21, 14, 43, 8, 14, 16, 74, 66, 51, 0)
s = 68: (0, 20, 33, 8, 32, 11, 8, 11, 60, 58, 58, 0)
s = 69: (0, 18, 43, 10, 17, 7, 9, 18, 100, 59, 73, 0)
s = 70: (0, 30, 27, 14, 29, 8, 9, 9, 111, 74, 30, 0)
s = 71: (0, 26, 24, 12, 45, 7, 11, 17, 86, 46, 55, 0)
s = 72: (0, 21, 34, 10, 18, 6, 8, 14, 112, 67, 67, 0)
s = 73: (0, 26, 39, 10, 25, 9, 13, 26, 145, 50, 75, 0)
s = 74: (0, 34, 24, 13, 41, 9, 9, 12, 109, 44, 53, 0)
s = 75: (0, 19, 38, 8, 34, 10, 9, 18, 138, 54, 56, 0)
s = 76: (0, 22, 34, 10, 40, 6, 13, 16, 130, 43, 51, 0)
s = 77: (0, 29, 37, 17, 23, 8, 11, 17, 73, 39, 58, 0)
s = 78: (0, 18, 17, 7, 17, 6, 12, 13, 118, 59, 58, 0)
s = 79: (0, 19, 16, 22, 20, 11, 16, 19, 63, 73, 45, 0)
s = 80: (0, 18, 21, 11, 36, 10, 6, 13, 82, 48, 57, 0)
s = 81: (0, 26, 18, 9, 31, 7, 7, 19, 86, 54, 51, 0)
s = 82: (0, 26, 22, 14, 17, 10, 8, 13, 120, 67, 41, 0)
s = 83: (0, 28, 18, 8, 34, 11, 12, 12, 85, 40, 53, 0)
s = 84: (0, 15, 33, 16, 23, 9, 11, 21, 95, 70, 57, 0)
s = 85: (0, 25, 40, 10, 38, 9, 7, 10, 136, 69, 34, 0)
s = 86: (0, 25, 22, 10, 31, 6, 8, 14, 59, 103, 83, 0)
s = 87: (0, 23, 24, 11, 21, 6, 8, 9, 88, 86, 33, 0)
s = 88: (0, 18, 31, 10, 23, 8, 11, 14, 117, 75, 40, 0)
s = 89: (0, 28, 26, 9, 15, 8, 8, 10, 138, 43, 45, 0)
s = 90: (0, 21, 32, 11, 23, 6, 8, 13, 111, 49, 62, 0)
s = 91: (0, 19, 25, 9, 20, 6, 13, 12, 138, 65, 40, 0)
s = 92: (0, 24, 30, 10, 21, 9, 13, 20, 81, 48, 48, 0)
s = 93: (0, 33, 21, 11, 23, 7, 11, 16, 127, 38, 48, 0)
s = 94: (0, 23, 36, 9, 19, 5, 10, 13, 102, 49, 59, 0)
s = 95: (0, 16, 39, 13, 27, 9, 8, 13, 77, 41, 67, 0)
s = 96: (0, 27, 16, 14, 38, 12, 9, 15, 86, 66, 48, 0)
s = 97: (0, 39, 29, 11, 18, 12, 12, 15, 98, 89, 68, 0)
s = 98: (0, 19, 28, 12, 19, 7, 10, 15, 102, 71, 42, 0)
s = 99: (0, 16, 32, 11, 20, 12, 11, 12, 64, 57, 92, 0)
s = 100: (0, 15, 18, 7, 25, 13, 7, 12, 86, 53, 83, 0)
s = 101: (0, 31, 21, 13, 27, 10, 9, 18, 72, 40, 57, 0)
s = 102: (0, 33, 18, 8, 21, 7, 8, 16, 131, 62, 44, 0)
s = 103: (0, 28, 28, 16, 24, 9, 9, 20, 142, 33, 90, 0)
s = 104: (0, 24, 34, 13, 26, 9, 14, 18, 70, 81, 38, 0)
s = 105: (0, 23, 38, 10, 16, 10, 8, 18, 51, 95, 56, 0)
s = 106: (0, 29, 29, 11, 18, 8, 15, 17, 67, 42, 42, 0)
s = 107: (0, 17, 27, 8, 20, 6, 12, 19, 71, 91, 51, 0)
s = 108: (0, 21, 33, 12, 18, 11, 6, 13, 115, 34, 53, 0)
s = 109: (0, 23, 35, 8, 34, 9, 13, 11, 104, 58, 52, 0)
s = 110: (0, 17, 27, 11, 24, 7, 9, 22, 53, 48, 55, 0)
s = 111: (0, 26, 21, 10, 27, 6, 9, 15, 121, 90, 92, 0)
s = 112: (0, 23, 32, 15, 29, 10, 8, 16, 65, 88, 55, 0)
s = 113: (0, 24, 34, 8, 22, 9, 7, 13, 73, 48, 54, 0)
s = 114: (0, 16, 28, 12, 21, 10, 8, 11, 53, 65, 55, 0)
s = 115: (0, 33, 36, 9, 19, 8, 12, 10, 79, 87, 42, 0)
s = 116: (0, 28, 23, 8, 33, 10, 9, 13, 48, 64, 64, 0)
s = 117: (0, 25, 27, 8, 29, 9, 13, 20, 91, 50, 49, 0)
s = 118: (0, 21, 17, 9, 36, 6, 12, 10, 82, 64, 45, 0)
s = 119: (0, 23, 26, 15, 50, 6, 10, 10, 65, 70, 54, 0)
s = 120: (0, 29, 48, 18, 23, 8, 12, 12, 74, 64, 31, 0)
s = 121: (0, 13, 30, 11, 35, 9, 13, 26, 64, 66, 52, 0)
s = 122: (0, 31, 27, 8, 32, 6, 10, 11, 153, 78, 62, 0)
s = 123: (0, 29, 19, 10, 21, 10, 12, 14, 95, 64, 44, 0)
s = 124: (0, 17, 16, 12, 27, 8, 7, 19, 68, 37, 71, 0)
s = 125: (0, 18, 32, 10, 19, 10, 10, 14, 121, 44, 61, 0)
s = 126: (0, 21, 25, 11, 19, 10, 7, 15, 95, 46, 51, 0)
s = 127: (0, 34, 24, 9, 25, 8, 16, 13, 87, 47, 50, 0)
s = 128: (0, 30, 22, 9, 16, 12, 10, 22, 68, 54, 56, 0)
s = 129: (0, 31, 24, 17, 22, 8, 11, 13, 114, 50, 44, 0)
s = 130: (0, 25, 21, 10, 23, 6, 6, 15, 89, 71, 51, 0)
s = 131: (0, 15, 32, 8, 25, 7, 10, 12, 98, 61, 39, 0)
s = 132: (0, 35, 30, 8, 21, 11, 8, 10, 103, 56, 51, 0)
s = 133: (0, 24, 21, 16, 22, 9, 6, 11, 100, 40, 67, 0)
s = 134: (0, 15, 28, 14, 27, 6, 6, 9, 91, 50, 52, 0)
s = 135: (0, 25, 37, 12, 18, 10, 9, 13, 56, 83, 65, 0)
s = 136: (0, 18, 23, 17, 34, 8, 12, 11, 125, 61, 50, 0)
s = 137: (0, 23, 24, 13, 33, 8, 14, 19, 83, 85, 54, 0)
s = 138: (0, 23, 22, 13, 19, 8, 13, 12, 103, 49, 63, 0)
s = 139: (0, 24, 39, 9, 20, 9, 13, 12, 78, 59, 53, 0)
s = 140: (0, 14, 36, 11, 29, 6, 10, 9, 87, 38, 70, 0)
s = 141: (0, 42, 28, 13, 24, 7, 15, 10, 90, 73, 50, 0)
s = 142: (0, 25, 18, 19, 25, 10, 6, 19, 84, 62, 35, 0)
s = 143: (0, 14, 25, 11, 28, 7, 11, 21, 88, 62, 77, 0)
s = 144: (0, 20, 25, 8, 36, 7, 12, 10, 66, 84, 40, 0)
s = 145: (0, 24, 22, 10, 16, 5, 7, 13, 112, 79, 51, 0)
s = 146: (0, 42, 53, 12, 34, 13, 17, 15, 95, 50, 80, 0)
s = 147: (0, 29, 42, 8, 20, 5, 12, 19, 70, 51, 41, 0)
s = 148: (0, 16, 31, 13, 29, 13, 12, 14, 152, 56, 51, 0)
s = 149: (0, 26, 32, 13, 31, 11, 9, 13, 137, 63, 48, 0)
s = 150: (0, 24, 36, 15, 15, 9, 9, 16, 93, 45, 38, 0)
s = 151: (0, 39, 23, 9, 19, 8, 9, 13, 95, 63, 36, 0)
s = 152: (0, 18, 27, 8, 14, 12, 11, 15, 83, 71, 72, 0)
s = 153: (0, 31, 25, 8, 29, 5, 15, 19, 95, 36, 52, 0)
s = 154: (0, 17, 25, 16, 20, 12, 13, 12, 110, 51, 36, 0)
s = 155: (0, 22, 28, 12, 23, 5, 15, 14, 74, 49, 71, 0)
s = 156: (0, 27, 30, 10, 28, 8, 12, 21, 116, 51, 31, 0)
s = 157: (0, 18, 21, 8, 28, 7, 11, 18, 118, 36, 37, 0)
s = 158: (0, 27, 29, 7, 19, 9, 10, 11, 76, 65, 31, 0)
s = 159: (0, 31, 36, 8, 45, 8, 16, 17, 57, 62, 50, 0)
s = 160: (0, 45, 25, 11, 46, 6, 14, 12, 124, 83, 34, 0)
s = 161: (0, 27, 33, 16, 21, 9, 8, 13, 52, 62, 56, 0)
s = 162: (0, 17, 21, 10, 27, 10, 7, 16, 111, 58, 63, 0)
s = 163: (0, 23, 34, 15, 26, 9, 11, 13, 77, 63, 52, 0)
s = 164: (0, 21, 31, 10, 24, 6, 8, 16, 79, 40, 44, 0)
s = 165: (0, 29, 32, 8, 32, 10, 6, 10, 113, 84, 59, 0)
s = 166: (0, 20, 20, 13, 22, 9, 13, 10, 68, 42, 59, 0)
s = 167: (0, 16, 27, 14, 34, 10, 12, 13, 120, 39, 62, 0)
s = 168: (0, 18, 24, 6, 28, 6, 6, 15, 61, 57, 65, 0)
s = 169: (0, 19, 27, 14, 38, 10, 11, 13, 87, 44, 38, 0)
s = 170: (0, 17, 29, 10, 23, 8, 11, 9, 101, 44, 58, 0)
s = 171: (0, 16, 33, 9, 26, 10, 11, 20, 79, 71, 96, 0)
s = 172: (0, 37, 23, 12, 21, 8, 12, 22, 91, 109, 73, 0)
s = 173: (0, 26, 38, 11, 27, 9, 9, 8, 61, 41, 59, 0)
s = 174: (0, 22, 40, 18, 23, 11, 11, 10, 69, 46, 46, 0)
s = 175: (0, 38, 29, 10, 28, 8, 10, 20, 84, 55, 58, 0)
s = 176: (0, 24, 42, 12, 24, 10, 9, 12, 85, 40, 63, 0)
s = 177: (0, 25, 25, 13, 31, 11, 11, 12, 165, 50, 49, 0)
s = 178: (0, 36, 33, 10, 29, 12, 8, 13, 119, 40, 50, 0)
s = 179: (0, 15, 17, 16, 24, 9, 17, 18, 86, 57, 54, 0)
s = 180: (0, 23, 29, 10, 14, 11, 11, 17, 67, 39, 47, 0)
s = 181: (0, 16, 27, 12, 27, 6, 9, 15, 91, 47, 57, 0)
s = 182: (0, 22, 21, 12, 21, 12, 7, 13, 97, 60, 50, 0)
s = 183: (0, 43, 22, 11, 33, 6, 14, 13, 113, 69, 40, 0)
s = 184: (0, 18, 21, 13, 36, 11, 10, 10, 80, 56, 53, 0)
s = 185: (0, 30, 36, 14, 35, 9, 11, 10, 84, 90, 45, 0)
s = 186: (0, 25, 31, 10, 19, 10, 9, 10, 131, 40, 32, 0)
s = 187: (0, 18, 28, 11, 31, 6, 12, 14, 87, 37, 88, 0)
s = 188: (0, 18, 54, 11, 38, 8, 13, 12, 119, 39, 47, 0)
s = 189: (0, 23, 31, 12, 36, 7, 11, 11, 92, 74, 93, 0)
s = 190: (0, 25, 23, 9, 44, 12, 7, 12, 70, 54, 75, 0)
s = 191: (0, 20, 16, 14, 40, 7, 16, 10, 86, 85, 73, 0)
s = 192: (0, 20, 30, 13, 22, 6, 10, 15, 104, 93, 42, 0)
s = 193: (0, 34, 21, 11, 25, 5, 7, 9, 82, 72, 48, 0)
s = 194: (0, 24, 38, 9, 29, 9, 7, 18, 102, 66, 54, 0)
s = 195: (0, 18, 26, 19, 15, 10, 11, 17, 63, 66, 47, 0)
s = 196: (0, 16, 31, 10, 30, 8, 13, 10, 98, 99, 45, 0)
s = 197: (0, 34, 20, 17, 28, 8, 11, 14, 103, 46, 61, 0)
s = 198: (0, 25, 25, 16, 43, 12, 8, 11, 68, 55, 75, 0)
s = 199: (0, 20, 35, 10, 19, 11, 13, 13, 114, 78, 74, 0)
s = 200: (0, 27, 17, 8, 20, 7, 7, 15, 167, 79, 44, 0)
------------------------------------------------------------------------
RESOURCE k = 2
s = 1: (0, 33, 19, 11, 19, 10, 15, 15, 92, 63, 59, 0)
s = 2: (0, 43, 17, 9, 28, 14, 13, 13, 65, 55, 73, 0)
s = 3: (0, 63, 24, 12, 14, 10, 19, 12, 76, 90, 68, 0)
s = 4: (0, 44, 19, 8, 22, 8, 17, 23, 91, 63, 77, 0)
s = 5: (0, 37, 29, 14, 19, 13, 9, 26, 68, 55, 63, 0)
s = 6: (0, 86, 19, 7, 32, 18, 9, 12, 103, 83, 45, 0)
s = 7: (0, 58, 28, 10, 23, 14, 13, 18, 100, 78, 65, 0)
s = 8: (0, 58, 21, 14, 30, 14, 14, 22, 61, 42, 73, 0)
s = 9: (0, 50, 28, 10, 32, 11, 11, 23, 72, 61, 67, 0)
s = 10: (0, 48, 24, 15, 29, 12, 11, 20, 61, 56, 36, 0)
s = 11: (0, 58, 22, 7, 35, 9, 16, 11, 83, 50, 55, 0)
s = 12: (0, 60, 20, 11, 27, 12, 18, 21, 90, 75, 46, 0)
s = 13: (0, 37, 32, 8, 29, 12, 26, 22, 147, 80, 40, 0)
s = 14: (0, 40, 25, 13, 26, 8, 10, 19, 173, 68, 63, 0)
s = 15: (0, 52, 15, 10, 24, 15, 16, 15, 57, 86, 66, 0)
s = 16: (0, 43, 21, 10, 18, 14, 20, 17, 125, 77, 36, 0)
s = 17: (0, 50, 20, 12, 23, 9, 12, 17, 134, 112, 76, 0)
s = 18: (0, 54, 21, 9, 36, 9, 20, 11, 131, 67, 37, 0)
s = 19: (0, 54, 40, 7, 25, 12, 14, 22, 113, 65, 38, 0)
s = 20: (0, 69, 26, 13, 25, 12, 16, 17, 71, 39, 65, 0)
s = 21: (0, 45, 24, 7, 30, 9, 17, 25, 113, 55, 51, 0)
s = 22: (0, 53, 19, 10, 13, 17, 15, 16, 86, 60, 61, 0)
s = 23: (0, 45, 30, 7, 24, 13, 17, 15, 92, 45, 69, 0)
s = 24: (0, 48, 37, 12, 25, 17, 14, 26, 104, 59, 45, 0)
s = 25: (0, 71, 27, 9, 14, 14, 16, 25, 84, 70, 89, 0)
s = 26: (0, 42, 18, 15, 19, 13, 18, 19, 81, 91, 65, 0)
s = 27: (0, 49, 23, 8, 15, 13, 18, 18, 97, 84, 79, 0)
s = 28: (0, 39, 19, 8, 20, 14, 22, 14, 122, 84, 71, 0)
s = 29: (0, 50, 19, 8, 25, 14, 18, 15, 101, 49, 82, 0)
s = 30: (0, 51, 18, 8, 22, 14, 12, 22, 110, 72, 40, 0)
s = 31: (0, 29, 16, 11, 32, 13, 21, 11, 121, 108, 58, 0)
s = 32: (0, 39, 26, 8, 24, 10, 19, 12, 90, 87, 42, 0)
s = 33: (0, 74, 22, 14, 19, 10, 15, 12, 65, 43, 62, 0)
s = 34: (0, 37, 24, 9, 29, 7, 14, 19, 66, 83, 51, 0)
s = 35: (0, 50, 21, 13, 34, 10, 11, 18, 107, 52, 76, 0)
s = 36: (0, 33, 30, 12, 38, 13, 17, 21, 57, 83, 36, 0)
s = 37: (0, 42, 27, 15, 26, 8, 11, 17, 79, 66, 56, 0)
s = 38: (0, 38, 13, 8, 18, 15, 12, 15, 150, 47, 84, 0)
s = 39: (0, 33, 26, 18, 19, 14, 19, 11, 119, 68, 68, 0)
s = 40: (0, 53, 15, 8, 25, 16, 8, 28, 99, 105, 79, 0)
s = 41: (0, 58, 18, 12, 29, 19, 15, 23, 90, 120, 45, 0)
s = 42: (0, 77, 26, 7, 16, 9, 12, 16, 92, 67, 59, 0)
s = 43: (0, 62, 33, 9, 17, 9, 24, 23, 63, 109, 51, 0)
s = 44: (0, 78, 19, 9, 14, 12, 14, 24, 129, 48, 32, 0)
s = 45: (0, 63, 19, 7, 23, 13, 9, 19, 132, 56, 60, 0)
s = 46: (0, 55, 25, 7, 30, 7, 10, 16, 67, 49, 97, 0)
s = 47: (0, 30, 13, 6, 32, 17, 15, 21, 133, 67, 67, 0)
s = 48: (0, 40, 16, 14, 17, 10, 11, 15, 144, 98, 71, 0)
s = 49: (0, 38, 15, 11, 34, 8, 18, 17, 90, 50, 45, 0)
s = 50: (0, 73, 27, 8, 35, 11, 19, 23, 79, 65, 100, 0)
s = 51: (0, 62, 17, 14, 26, 7, 13, 19, 122, 92, 49, 0)
s = 52: (0, 45, 19, 7, 15, 13, 13, 18, 162, 71, 59, 0)
s = 53: (0, 50, 18, 7, 17, 10, 19, 11, 126, 83, 70, 0)
s = 54: (0, 26, 32, 9, 28, 7, 23, 24, 93, 75, 47, 0)
s = 55: (0, 48, 22, 11, 22, 15, 15, 11, 101, 73, 84, 0)
s = 56: (0, 37, 27, 11, 24, 12, 22, 13, 92, 71, 43, 0)
s = 57: (0, 34, 17, 10, 15, 11, 16, 14, 74, 56, 73, 0)
s = 58: (0, 36, 22, 13, 23, 12, 20, 24, 159, 63, 41, 0)
s = 59: (0, 51, 14, 9, 18, 19, 13, 25, 87, 47, 86, 0)
s = 60: (0, 77, 20, 15, 28, 9, 14, 20, 129, 56, 77, 0)
s = 61: (0, 60, 17, 11, 27, 18, 17, 13, 78, 56, 48, 0)
s = 62: (0, 58, 18, 13, 30, 13, 10, 27, 123, 55, 78, 0)
s = 63: (0, 59, 30, 8, 25, 10, 29, 16, 117, 58, 70, 0)
s = 64: (0, 58, 31, 7, 13, 10, 14, 12, 131, 63, 73, 0)
s = 65: (0, 70, 16, 13, 36, 17, 21, 16, 99, 66, 38, 0)
s = 66: (0, 59, 22, 10, 19, 12, 16, 20, 118, 42, 49, 0)
s = 67: (0, 60, 17, 13, 36, 11, 21, 20, 84, 77, 56, 0)
s = 68: (0, 41, 26, 8, 27, 16, 12, 14, 68, 67, 63, 0)
s = 69: (0, 37, 34, 9, 14, 11, 13, 21, 113, 69, 80, 0)
s = 70: (0, 64, 21, 13, 24, 12, 13, 10, 126, 86, 32, 0)
s = 71: (0, 54, 19, 11, 38, 10, 17, 21, 97, 53, 60, 0)
s = 72: (0, 45, 27, 9, 16, 9, 12, 17, 127, 78, 73, 0)
s = 73: (0, 54, 31, 9, 21, 13, 19, 32, 164, 58, 82, 0)
s = 74: (0, 72, 19, 12, 35, 13, 13, 15, 123, 51, 57, 0)
s = 75: (0, 40, 30, 8, 29, 15, 13, 21, 156, 63, 61, 0)
s = 76: (0, 45, 26, 10, 34, 9, 19, 19, 147, 50, 55, 0)
s = 77: (0, 62, 30, 16, 19, 12, 16, 20, 82, 45, 63, 0)
s = 78: (0, 39, 14, 7, 14, 8, 18, 16, 134, 69, 63, 0)
s = 79: (0, 39, 13, 20, 17, 17, 23, 23, 71, 85, 49, 0)
s = 80: (0, 39, 17, 10, 30, 14, 9, 16, 93, 56, 62, 0)
s = 81: (0, 56, 14, 8, 26, 10, 10, 23, 97, 63, 56, 0)
s = 82: (0, 55, 17, 13, 15, 15, 12, 16, 136, 78, 45, 0)
s = 83: (0, 59, 14, 7, 29, 16, 17, 14, 97, 47, 58, 0)
s = 84: (0, 32, 26, 15, 19, 13, 16, 26, 107, 82, 62, 0)
s = 85: (0, 53, 32, 10, 32, 14, 10, 12, 154, 81, 37, 0)
s = 86: (0, 53, 17, 9, 26, 9, 12, 17, 67, 120, 91, 0)
s = 87: (0, 47, 19, 10, 18, 9, 12, 11, 99, 101, 36, 0)
s = 88: (0, 38, 24, 9, 20, 12, 16, 17, 133, 88, 44, 0)
s = 89: (0, 60, 21, 8, 13, 12, 12, 12, 157, 50, 49, 0)
s = 90: (0, 43, 25, 10, 19, 8, 12, 15, 126, 57, 68, 0)
s = 91: (0, 40, 20, 8, 17, 9, 20, 14, 157, 76, 43, 0)
s = 92: (0, 51, 23, 9, 18, 13, 19, 25, 92, 56, 53, 0)
s = 93: (0, 69, 16, 10, 20, 11, 16, 20, 144, 44, 52, 0)
s = 94: (0, 47, 29, 8, 16, 7, 15, 15, 116, 57, 64, 0)
s = 95: (0, 34, 31, 12, 23, 13, 12, 16, 87, 47, 73, 0)
s = 96: (0, 56, 13, 13, 32, 17, 13, 18, 97, 77, 52, 0)
s = 97: (0, 83, 23, 10, 15, 18, 18, 18, 111, 104, 75, 0)
s = 98: (0, 40, 22, 11, 16, 11, 15, 18, 115, 83, 45, 0)
s = 99: (0, 34, 26, 10, 17, 17, 17, 15, 72, 66, 100, 0)
s = 100: (0, 32, 15, 6, 21, 19, 11, 15, 97, 62, 90, 0)
s = 101: (0, 65, 17, 12, 23, 14, 14, 21, 82, 46, 62, 0)
s = 102: (0, 70, 14, 8, 18, 11, 12, 20, 148, 72, 48, 0)
s = 103: (0, 59, 22, 15, 21, 13, 13, 24, 160, 39, 98, 0)
s = 104: (0, 51, 27, 11, 22, 13, 20, 21, 79, 95, 41, 0)
s = 105: (0, 49, 30, 9, 14, 15, 12, 22, 58, 111, 61, 0)
s = 106: (0, 61, 23, 10, 15, 12, 22, 21, 76, 49, 45, 0)
s = 107: (0, 36, 22, 7, 17, 9, 18, 23, 80, 107, 55, 0)
s = 108: (0, 44, 26, 11, 15, 17, 9, 16, 130, 40, 58, 0)
s = 109: (0, 49, 27, 7, 29, 13, 20, 13, 118, 68, 56, 0)
s = 110: (0, 36, 21, 10, 21, 10, 13, 27, 60, 56, 60, 0)
s = 111: (0, 55, 16, 9, 23, 9, 13, 18, 137, 105, 100, 0)
s = 112: (0, 48, 25, 14, 25, 15, 12, 20, 74, 103, 60, 0)
s = 113: (0, 49, 27, 8, 18, 14, 11, 16, 83, 56, 58, 0)
s = 114: (0, 33, 22, 11, 18, 15, 12, 13, 60, 76, 60, 0)
s = 115: (0, 69, 28, 8, 16, 11, 18, 12, 90, 101, 46, 0)
s = 116: (0, 59, 18, 7, 28, 14, 13, 16, 54, 74, 70, 0)
s = 117: (0, 52, 22, 8, 25, 13, 20, 25, 103, 59, 53, 0)
s = 118: (0, 43, 14, 8, 31, 9, 18, 12, 93, 74, 49, 0)
s = 119: (0, 49, 21, 14, 43, 8, 14, 12, 74, 81, 59, 0)
s = 120: (0, 60, 38, 17, 20, 11, 17, 14, 84, 74, 33, 0)
s = 121: (0, 26, 23, 10, 30, 13, 19, 32, 72, 76, 56, 0)
s = 122: (0, 66, 21, 7, 27, 9, 15, 13, 174, 91, 68, 0)
s = 123: (0, 60, 15, 9, 18, 15, 17, 17, 107, 74, 48, 0)
s = 124: (0, 37, 13, 11, 23, 11, 11, 23, 77, 43, 77, 0)
s = 125: (0, 38, 25, 10, 16, 15, 14, 17, 137, 51, 66, 0)
s = 126: (0, 45, 19, 10, 16, 14, 10, 18, 108, 54, 55, 0)
s = 127: (0, 72, 19, 8, 21, 12, 24, 15, 98, 54, 55, 0)
s = 128: (0, 63, 18, 9, 13, 18, 14, 27, 77, 62, 61, 0)
s = 129: (0, 65, 19, 15, 19, 11, 16, 15, 129, 58, 48, 0)
s = 130: (0, 52, 17, 9, 20, 9, 9, 18, 101, 83, 55, 0)
s = 131: (0, 31, 26, 7, 21, 10, 14, 15, 111, 71, 42, 0)
s = 132: (0, 73, 24, 7, 18, 16, 12, 12, 117, 65, 56, 0)
s = 133: (0, 51, 16, 14, 19, 14, 9, 13, 113, 47, 73, 0)
s = 134: (0, 31, 22, 13, 23, 9, 9, 10, 103, 58, 56, 0)
s = 135: (0, 52, 30, 11, 16, 14, 13, 16, 64, 96, 71, 0)
s = 136: (0, 38, 19, 16, 29, 11, 18, 13, 141, 71, 54, 0)
s = 137: (0, 49, 19, 12, 28, 11, 21, 23, 94, 99, 58, 0)
s = 138: (0, 49, 17, 12, 16, 12, 19, 14, 117, 57, 68, 0)
s = 139: (0, 49, 30, 8, 17, 13, 20, 15, 88, 68, 58, 0)
s = 140: (0, 29, 29, 10, 24, 8, 14, 11, 99, 44, 76, 0)
s = 141: (0, 88, 22, 12, 21, 11, 22, 12, 102, 85, 55, 0)
s = 142: (0, 52, 14, 18, 22, 15, 9, 23, 95, 72, 38, 0)
s = 143: (0, 30, 20, 10, 24, 10, 17, 26, 99, 72, 84, 0)
s = 144: (0, 41, 20, 7, 30, 10, 18, 12, 75, 98, 43, 0)
s = 145: (0, 50, 18, 9, 13, 7, 10, 16, 126, 92, 56, 0)
s = 146: (0, 89, 42, 11, 29, 19, 26, 19, 107, 58, 88, 0)
s = 147: (0, 61, 33, 8, 17, 7, 17, 22, 79, 60, 45, 0)
s = 148: (0, 34, 25, 12, 24, 19, 18, 17, 172, 65, 55, 0)
s = 149: (0, 55, 25, 12, 26, 16, 14, 16, 155, 74, 52, 0)
s = 150: (0, 51, 29, 14, 13, 13, 14, 19, 105, 53, 41, 0)
s = 151: (0, 83, 18, 9, 16, 12, 13, 16, 108, 73, 39, 0)
s = 152: (0, 38, 22, 7, 12, 18, 16, 18, 93, 83, 79, 0)
s = 153: (0, 66, 20, 7, 25, 7, 23, 23, 107, 42, 57, 0)
s = 154: (0, 36, 20, 14, 17, 18, 19, 15, 125, 60, 39, 0)
s = 155: (0, 46, 22, 11, 20, 7, 23, 16, 84, 57, 77, 0)
s = 156: (0, 57, 24, 9, 24, 12, 18, 25, 132, 59, 34, 0)
s = 157: (0, 38, 17, 7, 24, 11, 16, 22, 134, 42, 41, 0)
s = 158: (0, 56, 23, 7, 16, 13, 14, 13, 86, 76, 34, 0)
s = 159: (0, 66, 28, 7, 38, 12, 24, 21, 64, 72, 54, 0)
s = 160: (0, 94, 20, 10, 39, 9, 21, 15, 140, 97, 37, 0)
s = 161: (0, 56, 26, 14, 18, 13, 12, 16, 58, 73, 62, 0)
s = 162: (0, 35, 17, 9, 23, 14, 11, 19, 125, 68, 69, 0)
s = 163: (0, 49, 27, 13, 22, 13, 16, 16, 87, 74, 57, 0)
s = 164: (0, 44, 24, 9, 20, 9, 12, 19, 90, 47, 48, 0)
s = 165: (0, 61, 25, 7, 27, 14, 9, 12, 128, 98, 65, 0)
s = 166: (0, 42, 16, 12, 19, 13, 20, 12, 77, 49, 65, 0)
s = 167: (0, 33, 21, 13, 29, 15, 17, 16, 136, 45, 68, 0)
s = 168: (0, 37, 19, 6, 24, 8, 8, 18, 69, 66, 70, 0)
s = 169: (0, 39, 22, 13, 32, 14, 16, 15, 98, 51, 41, 0)
s = 170: (0, 35, 23, 9, 20, 12, 16, 11, 114, 51, 63, 0)
s = 171: (0, 33, 26, 8, 22, 14, 16, 24, 89, 82, 105, 0)
s = 172: (0, 78, 18, 11, 18, 11, 18, 26, 103, 127, 80, 0)
s = 173: (0, 55, 30, 10, 23, 13, 13, 10, 69, 48, 65, 0)
s = 174: (0, 45, 31, 16, 20, 16, 17, 12, 78, 53, 51, 0)
s = 175: (0, 80, 23, 9, 24, 12, 14, 24, 95, 64, 63, 0)
s = 176: (0, 50, 33, 11, 20, 15, 13, 15, 96, 47, 69, 0)
s = 177: (0, 53, 20, 12, 26, 16, 16, 15, 187, 58, 54, 0)
s = 178: (0, 76, 26, 9, 25, 17, 12, 15, 134, 46, 55, 0)
s = 179: (0, 32, 13, 14, 21, 14, 25, 22, 98, 66, 59, 0)
s = 180: (0, 49, 23, 9, 12, 17, 17, 20, 75, 45, 52, 0)
s = 181: (0, 32, 22, 11, 23, 8, 14, 18, 103, 55, 62, 0)
s = 182: (0, 46, 17, 11, 17, 18, 11, 16, 110, 70, 54, 0)
s = 183: (0, 90, 17, 10, 28, 9, 21, 16, 128, 81, 43, 0)
s = 184: (0, 38, 17, 12, 31, 16, 15, 12, 90, 65, 58, 0)
s = 185: (0, 63, 28, 13, 29, 13, 17, 12, 95, 105, 49, 0)
s = 186: (0, 52, 25, 10, 16, 14, 14, 12, 149, 46, 34, 0)
s = 187: (0, 37, 22, 10, 26, 9, 17, 17, 98, 44, 96, 0)
s = 188: (0, 38, 43, 10, 32, 12, 20, 14, 135, 46, 51, 0)
s = 189: (0, 48, 25, 11, 31, 11, 16, 13, 104, 87, 102, 0)
s = 190: (0, 52, 18, 8, 37, 17, 10, 15, 79, 63, 82, 0)
s = 191: (0, 41, 13, 13, 34, 10, 24, 12, 98, 99, 80, 0)
s = 192: (0, 42, 24, 12, 19, 8, 15, 18, 118, 108, 46, 0)
s = 193: (0, 72, 17, 10, 21, 7, 11, 11, 92, 84, 52, 0)
s = 194: (0, 51, 30, 8, 24, 14, 11, 21, 115, 77, 59, 0)
s = 195: (0, 38, 21, 17, 13, 14, 16, 21, 72, 77, 51, 0)
s = 196: (0, 34, 24, 9, 26, 11, 19, 12, 111, 115, 49, 0)
s = 197: (0, 72, 16, 16, 24, 12, 16, 17, 117, 54, 67, 0)
s = 198: (0, 52, 19, 15, 37, 17, 11, 13, 77, 65, 82, 0)
s = 199: (0, 41, 28, 10, 16, 17, 20, 16, 129, 90, 81, 0)
s = 200: (0, 58, 13, 7, 17, 10, 10, 19, 189, 92, 48, 0)
************************************************************************
ES/LS-VALUES:
jobnr.   ES(i)    LS(i)
------------------------------------------------------------------------
  0        0        0
  1        0       57
  2        0       57
  3        0       61
  4        3       61
  5        5       63
  6        6       65
  7        6       66
  8        6       65
  9        7       67
 10        7       68
 11       17       77
************************************************************************
BIG-M-VALUES:
M1 = 42, M2 = 356
************************************************************************
